CPXPARAM_TimeLimit                               3600
CPXPARAM_Read_DataCheck                          1
CPXPARAM_MIP_Limits_Solutions                    1
Tried aggregator 1 time.
MIP Presolve eliminated 2514 rows and 0 columns.
MIP Presolve modified 4324 coefficients.
Reduced MIP has 169366 rows, 54451 columns, and 612014 nonzeros.
Reduced MIP has 2850 binaries, 0 generals, 0 SOSs, and 0 indicators.
Presolve time = 0.15 sec. (225.54 ticks)
Found incumbent of value 11989.000000 after 0.29 sec. (388.49 ticks)

Root node processing (before b&c):
  Real time             =    0.29 sec. (391.15 ticks)
Parallel b&c, 8 threads:
  Real time             =    0.00 sec. (0.00 ticks)
  Sync time (average)   =    0.00 sec.
  Wait time (average)   =    0.00 sec.
                          ------------
Total (root+branch&cut) =    0.29 sec. (391.15 ticks)
